32      4       
19      11      17      17      
0       0       0       0       0       5       2       3       4       5       6       
1       0       0       9       6       2       23      28      
3       0       0       0       9       2       11      18      
5       8       0       8       0       2       13      21      
9       10      0       2       4       1       12      
2       2       4       0       5       3       7       8       9       
3       6       5       4       0       3       15      26      30      
1       0       0       3       0       1       11      
3       0       0       0       6       1       10      
7       6       0       5       2       3       14      17      25      
10      0       0       4       0       1       17      
1       0       1       0       1       1       18      
2       4       10      0       1       2       17      20      
9       0       0       8       1       1       16      
9       0       0       0       5       1       22      
3       9       0       10      3       1       21      
4       3       5       0       9       1       31      
8       9       0       0       8       2       19      24      
1       0       0       0       7       1       22      
4       1       0       0       0       1       28      
4       5       0       8       0       1       29      
2       0       0       9       0       1       27      
9       0       1       2       0       1       27      
6       10      10      7       9       2       29      30      
5       2       0       9       0       1       27      
6       3       0       8       0       2       28      31      
7       8       0       0       0       1       31      
3       0       2       2       0       1       29      
3       0       7       7       3       1       32      
7       3       0       0       7       1       32      
10      10      0       0       3       1       32      
0       0       0       0       0       0       